\LP file generated from the problem `Slots selection' by the
\Xpress Builder Component Library Xpress BCL

Minimize
obj: 233 WR_(0) + 482 WR_(1) + 542 WR_(2) + 572 WR_(3) + 632 WR_(4) + 677 WR_(5) + 
737 WR_(6) + 812 WR_(7) + 842 WR_(8) + 1024 WR_(9) + 1172 WR_(10) + 1217 WR_(11) + 
1416 WR_(12) + 1562 WR_(13) + 1801 WR_(14) + 1831 WR_(15) + 2007 WR_(16) + 2254 WR_(17) + 
2314 WR_(18) + 2449 WR_(19) + 2539 WR_(20) + 2584 WR_(21) + 2858 WR_(22) + 2888 WR_(23) + 
3150 WR_(24) + 3410 WR_(25) + 3455 WR_(26) + 3656 WR_(27) + 3686 WR_(28) + 3927 WR_(29) + 
4048 WR_(30) + 4271 WR_(31) + 4474 WR_(32) + 4683 WR_(33) + 4809 WR_(34) + 5068 WR_(35) + 
5098 WR_(36) + 5216 WR_(37) + 5341 WR_(38) + 5560 WR_(39) + 5680 WR_(40) + 5918 WR_(41) + 
6036 WR_(42) + 6172 WR_(43) + 6390 WR_(44) + 6453 WR_(45) + 6637 WR_(46) + 6807 WR_(47) + 
7000 WR_(48) + 7167 WR_(49) + 7333 WR_(50) + 7477 WR_(51) + 7705 WR_(52) + 7765 WR_(53) + 
7996 WR_(54) + 8026 WR_(55) + 8086 WR_(56) + 8161 WR_(57) + 8251 WR_(58) + 8281 WR_(59) + 
8311 WR_(60) + 8401 WR_(61) + 8431 WR_(62) + 8461 WR_(63) + 8536 WR_(64) + 8566 WR_(65) + 
8596 WR_(66) + 8671 WR_(67) + 8701 WR_(68) + 8821 WR_(69) + 8851 WR_(70) + 8881 WR_(71) + 
8956 WR_(72) + 9016 WR_(73) + 9061 WR_(74) + 9091 WR_(75) + 9121 WR_(76) + 9151 WR_(77) + 
9211 WR_(78) + 9301 WR_(79) + 9361 WR_(80) + 9436 WR_(81) + 9511 WR_(82) + 9571 WR_(83) + 
9661 WR_(84) + 9691 WR_(85) + 9721 WR_(86) + 9781 WR_(87) + 9826 WR_(88) + 9871 WR_(89) + 
9901 WR_(90) + 9931 WR_(91) + 9961 WR_(92) + 10006 WR_(93) + 10066 WR_(94) + 
10126 WR_(95) + 10216 WR_(96) + 10246 WR_(97) + 10276 WR_(98) + 10306 WR_(99) + 
10336 WR_(100) + 10426 WR_(101) + 10456 WR_(102) + 10486 WR_(103) + 10561 WR_(104) + 
10636 WR_(105) + 10666 WR_(106) + 10696 WR_(107) + 10786 WR_(108) + 10846 WR_(109) + 
10876 WR_(110) + 10951 WR_(111) + 10981 WR_(112) + 11011 WR_(113) + 11056 WR_(114) + 
11086 WR_(115) + 11116 WR_(116) + 11206 WR_(117) + 11296 WR_(118) + 11356 WR_(119) + 
11386 WR_(120) + 11416 WR_(121) + 11476 WR_(122) + 11536 WR_(123) + 11596 WR_(124) + 
11626 WR_(125) + 11746 WR_(126) + 11806 WR_(127) + 11836 WR_(128) + 11866 WR_(129) + 
11956 WR_(130) + 12046 WR_(131) + 12091 WR_(132) + 12121 WR_(133) + 12166 WR_(134) + 
12256 WR_(135) + 12286 WR_(136) + 12376 WR_(137) + 12496 WR_(138) + 12571 WR_(139) + 
12601 WR_(140) + 12661 WR_(141) + 12781 WR_(142) + 12841 WR_(143) + 12886 WR_(144) + 
12931 WR_(145) + 12961 WR_(146) + 13051 WR_(147) + 13111 WR_(148) + 13201 WR_(149)

Subject To
slot_75: WR_(54) + WR_(149) = 1
slot_74: WR_(53) + WR_(148) = 1
slot_73: WR_(19) + WR_(52) + WR_(147) = 1
slot_72: WR_(27) + WR_(146) = 1
slot_71: WR_(26) + WR_(145) = 1
slot_70: WR_(74) + WR_(144) = 1
slot_69: WR_(51) + WR_(143) = 1
slot_68: WR_(25) + WR_(142) = 1
slot_67: WR_(73) + WR_(141) = 1
slot_66: WR_(10) + WR_(12) + WR_(13) + WR_(14) + WR_(16) + WR_(24) + WR_(50) + 
WR_(140) = 1
slot_65: WR_(72) + WR_(139) = 1
slot_64: WR_(14) + WR_(17) + WR_(22) + WR_(49) + WR_(138) = 1
slot_63: WR_(24) + WR_(137) = 1
slot_62: WR_(22) + WR_(23) + WR_(42) + WR_(136) = 1
slot_61: WR_(48) + WR_(135) = 1
slot_60: WR_(22) + WR_(134) = 1
slot_59: WR_(71) + WR_(133) = 1
slot_58: WR_(21) + WR_(22) + WR_(132) = 1
slot_57: WR_(20) + WR_(48) + WR_(131) = 1
slot_56: WR_(47) + WR_(130) = 1
slot_55: WR_(19) + WR_(129) = 1
slot_54: WR_(70) + WR_(128) = 1
slot_53: WR_(46) + WR_(127) = 1
slot_52: WR_(44) + WR_(46) + WR_(69) + WR_(126) = 1
slot_51: WR_(45) + WR_(125) = 1
slot_50: WR_(10) + WR_(12) + WR_(13) + WR_(16) + WR_(18) + WR_(24) + WR_(25) + 
WR_(47) + WR_(50) + WR_(52) + WR_(54) + WR_(124) = 1
slot_49: WR_(17) + WR_(123) = 1
slot_48: WR_(16) + WR_(122) = 1
slot_47: WR_(17) + WR_(42) + WR_(43) + WR_(45) + WR_(49) + WR_(68) + WR_(121) = 1
slot_46: WR_(15) + WR_(120) = 1
slot_45: WR_(14) + WR_(119) = 1
slot_44: WR_(44) + WR_(118) = 1
slot_43: WR_(43) + WR_(117) = 1
slot_42: WR_(13) + WR_(116) = 1
slot_41: WR_(12) + WR_(115) = 1
slot_40: WR_(11) + WR_(12) + WR_(24) + WR_(25) + WR_(50) + WR_(52) + WR_(54) + 
WR_(114) = 1
slot_39: WR_(10) + WR_(113) = 1
slot_38: WR_(42) + WR_(112) = 1
slot_37: WR_(51) + WR_(67) + WR_(111) = 1
slot_36: WR_(38) + WR_(66) + WR_(110) = 1
slot_35: WR_(41) + WR_(109) = 1
slot_34: WR_(9) + WR_(108) = 1
slot_33: WR_(65) + WR_(107) = 1
slot_32: WR_(8) + WR_(106) = 1
slot_31: WR_(7) + WR_(9) + WR_(34) + WR_(37) + WR_(40) + WR_(105) = 1
slot_30: WR_(64) + WR_(104) = 1
slot_29: WR_(40) + WR_(103) = 1
slot_28: WR_(1) + WR_(39) + WR_(102) = 1
slot_27: WR_(38) + WR_(101) = 1
slot_26: WR_(30) + WR_(63) + WR_(100) = 1
slot_25: WR_(37) + WR_(99) = 1
slot_24: WR_(29) + WR_(31) + WR_(32) + WR_(33) + WR_(39) + WR_(41) + WR_(62) + 
WR_(98) = 1
slot_23: WR_(36) + WR_(97) = 1
slot_22: WR_(27) + WR_(61) + WR_(96) = 1
slot_21: WR_(35) + WR_(95) = 1
slot_20: WR_(6) + WR_(94) = 1
slot_19: WR_(34) + WR_(93) = 1
slot_18: WR_(29) + WR_(31) + WR_(32) + WR_(33) + WR_(39) + WR_(41) + WR_(60) + 
WR_(92) = 1
slot_17: WR_(33) + WR_(91) = 1
slot_16: WR_(32) + WR_(90) = 1
slot_15: WR_(5) + WR_(89) = 1
slot_14: WR_(0) + WR_(1) + WR_(31) + WR_(88) = 1
slot_13: WR_(0) + WR_(1) + WR_(4) + WR_(35) + WR_(87) = 1
slot_12: WR_(3) + WR_(86) = 1
slot_11: WR_(29) + WR_(31) + WR_(35) + WR_(39) + WR_(59) + WR_(85) = 1
slot_10: WR_(32) + WR_(33) + WR_(41) + WR_(58) + WR_(84) = 1
slot_9: WR_(0) + WR_(2) + WR_(29) + WR_(31) + WR_(39) + WR_(83) = 1
slot_8: WR_(1) + WR_(82) = 1
slot_7: WR_(35) + WR_(57) + WR_(81) = 1
slot_6: WR_(27) + WR_(56) + WR_(80) = 1
slot_5: WR_(30) + WR_(79) = 1
slot_4: WR_(29) + WR_(78) = 1
slot_3: WR_(55) + WR_(77) = 1
slot_2: WR_(0) + WR_(76) = 1
slot_1: WR_(28) + WR_(75) = 1
slot: = 0

Bounds

Binaries
WR_(0) WR_(1) WR_(2) WR_(3) WR_(4) WR_(5) WR_(6) WR_(7) WR_(8) WR_(9) WR_(10) 
WR_(11) WR_(12) WR_(13) WR_(14) WR_(15) WR_(16) WR_(17) WR_(18) WR_(19) WR_(20) 
WR_(21) WR_(22) WR_(23) WR_(24) WR_(25) WR_(26) WR_(27) WR_(28) WR_(29) WR_(30) 
WR_(31) WR_(32) WR_(33) WR_(34) WR_(35) WR_(36) WR_(37) WR_(38) WR_(39) WR_(40) 
WR_(41) WR_(42) WR_(43) WR_(44) WR_(45) WR_(46) WR_(47) WR_(48) WR_(49) WR_(50) 
WR_(51) WR_(52) WR_(53) WR_(54) WR_(55) WR_(56) WR_(57) WR_(58) WR_(59) WR_(60) 
WR_(61) WR_(62) WR_(63) WR_(64) WR_(65) WR_(66) WR_(67) WR_(68) WR_(69) WR_(70) 
WR_(71) WR_(72) WR_(73) WR_(74) WR_(75) WR_(76) WR_(77) WR_(78) WR_(79) WR_(80) 
WR_(81) WR_(82) WR_(83) WR_(84) WR_(85) WR_(86) WR_(87) WR_(88) WR_(89) WR_(90) 
WR_(91) WR_(92) WR_(93) WR_(94) WR_(95) WR_(96) WR_(97) WR_(98) WR_(99) WR_(100) 
WR_(101) WR_(102) WR_(103) WR_(104) WR_(105) WR_(106) WR_(107) WR_(108) WR_(109) 
WR_(110) WR_(111) WR_(112) WR_(113) WR_(114) WR_(115) WR_(116) WR_(117) WR_(118) 
WR_(119) WR_(120) WR_(121) WR_(122) WR_(123) WR_(124) WR_(125) WR_(126) WR_(127) 
WR_(128) WR_(129) WR_(130) WR_(131) WR_(132) WR_(133) WR_(134) WR_(135) WR_(136) 
WR_(137) WR_(138) WR_(139) WR_(140) WR_(141) WR_(142) WR_(143) WR_(144) WR_(145) 
WR_(146) WR_(147) WR_(148) WR_(149) 

End
